(set-info :status unsat)
(declare-const symbol_17 (_ BitVec 32))
(declare-const symbol_15 (_ BitVec 32))
(declare-const symbol_0 (_ BitVec 32))
(declare-const symbol_9 (_ BitVec 32))
(declare-const symbol_11 (_ BitVec 32))
(declare-const symbol_3 (_ BitVec 32))
(declare-const symbol_2 (_ BitVec 32))
(declare-const symbol_13 (_ BitVec 32))
(declare-const symbol_8 (_ BitVec 32))
(declare-const symbol_5 (_ BitVec 32))
(assert (= symbol_17 (_ bv2 32)))
(assert (not (not (= symbol_17 (_ bv1 32)))))
(assert (not (not (= symbol_15 (_ bv1 32)))))
(assert (not (not (= symbol_13 (_ bv1 32)))))
(assert (not (not (= symbol_11 (_ bv1 32)))))
(assert (not (not (= symbol_9 (_ bv1 32)))))
(assert (not (not (= symbol_8 (_ bv1 32)))))
(assert (not (not (= symbol_5 (_ bv1 32)))))
(assert (not (not (= symbol_3 (_ bv1 32)))))
(assert (not (not (= symbol_2 (_ bv1 32)))))
(assert (not (not (= symbol_0 (_ bv1 32)))))
(check-sat)